solutions/best/exact/exact_025.sol
8
4
3
1
13
11
24
11
11
6
11
6
0
12
18
21
26
25
19
15
13
20
23
21
1
19
19
28
29
3
28
